169
1 2 3 4 7 8 12 13 18 19 25 33 39 40 43 50 56 58 66 88 96 100 104 108 112 113 122 132 136 144 152 155 169 171 173 186 207 208 209 210 227 236 244 245 253 256 262 275 283 287 289 301 311 327 341 355 356 377 378 379 380 384 400 402 404 405 408 412 420 424 425 426 448 453 469 490 515 517 521 534 540 543 558 574 588 592 605 609 620 632 635 643 654 662 670 678 686 694 702 706 716 723 752 768 771 793 805 808 838 842 855 889 894 909 915 923 928 936 938 944 949 974 996 1038 1054 1061 1068 1080 1088 1092 1096 1110 1116 1122 1177 1183 1194 1197 1211 1213 1275 1276 1307 1327 1343 1350 1374 1402 1405 1432 1458 1473 1477 1545 1552 1585 1600 1609 1615 1617 1634 1664 1722 1724 1731 1758 1761 1768 1793
0.39,169
